*SENSE:Maximize
NAME          MODEL
ROWS
 N  OBJ
 L  C0000000
 L  C0000001
 L  C0000002
COLUMNS
    MARK      'MARKER'                 'INTORG'
    X0000000  C0000001   1.000000000000e+00
    X0000000  C0000000   1.000000000000e+00
    X0000000  C0000002   5.000000000000e+00
    X0000000  OBJ        5.000000000000e-01
    MARK      'MARKER'                 'INTEND'
    MARK      'MARKER'                 'INTORG'
    X0000001  C0000001   1.000000000000e+00
    X0000001  C0000000   1.000000000000e+00
    X0000001  C0000002   7.000000000000e+00
    X0000001  OBJ        5.000000000000e-01
    MARK      'MARKER'                 'INTEND'
RHS
    RHS       C0000000   1.000000000000e+00
    RHS       C0000001   1.000000000000e+00
    RHS       C0000002   1.000000000000e+02
BOUNDS
 BV BND       X0000000
 BV BND       X0000001
ENDATA
